\ENCODING=ISO-8859-1
\Problem name: ilog.cplex

Maximize
 obj: 2 g(0)(0)#0 + 2 g(1)(0)#1 + 5 g(2)(0)#2 + g(0)(1)#3 + 3 g(1)(1)#4
      + 3 g(0)(2)#6 + 7 g(1)(2)#7 + 3 g(2)(2)#8
Subject To
 Proba_Theta0#0:  g(0)(0)#0 + g(1)(0)#1 + g(2)(0)#2  = 1
 Proba_Theta1#1:  g(0)(1)#3 + g(1)(1)#4 + g(2)(1)#5  = 1
 Proba_Theta2#2:  g(0)(2)#6 + g(1)(2)#7 + g(2)(2)#8  = 1
 Proba_Theta3#3:  g(0)(3)#9 + g(1)(3)#10 + g(2)(3)#11  = 1
 Proba_Theta4#4:  g(0)(4)#12 + g(1)(4)#13 + g(2)(4)#14  = 1
 Proba_Theta5#5:  g(0)(5)#15 + g(1)(5)#16 + g(2)(5)#17  = 1
 IR_A0,Theta0#6:  2 g(0)(0)#0 + 2 g(1)(0)#1 + 5 g(2)(0)#2 >= 2
 IR_A0,Theta3#7:  >= 0
 IR_A1,Theta1#8:  g(0)(1)#3 + 3 g(1)(1)#4 >= 1
 IR_A1,Theta4#9:  >= 0
 IR_A2,Theta2#10: 3 g(0)(2)#6 + 7 g(1)(2)#7 + 3 g(2)(2)#8 >= 3
 IR_A2,Theta5#11: >= 0
 IC_A0,Theta3#12: 2 g(0)(0)#0 + 2 g(1)(0)#1 + 5 g(2)(0)#2 - 2 g(0)(3)#9
                  - 2 g(1)(3)#10 - 5 g(2)(3)#11 >= 0
 IC_A1,Theta4#13: g(0)(1)#3 + 3 g(1)(1)#4 - g(0)(4)#12 - 3 g(1)(4)#13 >= 0
 IC_A2,Theta5#14: 3 g(0)(2)#6 + 7 g(1)(2)#7 + 3 g(2)(2)#8 - 3 g(0)(5)#15
                  - 7 g(1)(5)#16 - 3 g(2)(5)#17 >= 0
Bounds
 0 <= g(0)(0)#0 <= 1
 0 <= g(1)(0)#1 <= 1
 0 <= g(2)(0)#2 <= 1
 0 <= g(0)(1)#3 <= 1
 0 <= g(1)(1)#4 <= 1
 0 <= g(2)(1)#5 <= 1
 0 <= g(0)(2)#6 <= 1
 0 <= g(1)(2)#7 <= 1
 0 <= g(2)(2)#8 <= 1
 0 <= g(0)(3)#9 <= 1
 0 <= g(1)(3)#10 <= 1
 0 <= g(2)(3)#11 <= 1
 0 <= g(0)(4)#12 <= 1
 0 <= g(1)(4)#13 <= 1
 0 <= g(2)(4)#14 <= 1
 0 <= g(0)(5)#15 <= 1
 0 <= g(1)(5)#16 <= 1
 0 <= g(2)(5)#17 <= 1
End
